c File: flat150_3_0.col
c
c SOURCE: Joseph Culberson (joe@cs.ualberta.ca)
c DESCRIPTION: Quasi-random coloring problem
c              generated with flatness = 0
c                             probability = 0.048
c                             known coloring = 3
c                             random seed = 1042
c              Creation Date:  Wed Feb 24 10:37:29 1999
c Maximum degree = 8 Minimum degree = 0
c COLOR VERIFICATION: Using the permuted order
c under simple greedy yields the specified
c coloring number
c Color = 3 specified partitions = 3
c p edge 150 360
c cnf created by edge2cnf
p cnf 450 1680
-1 -2 0
-1 -3 0
-2 -3 0
1 2 3 0
-4 -5 0
-4 -6 0
-5 -6 0
4 5 6 0
-7 -8 0
-7 -9 0
-8 -9 0
7 8 9 0
-10 -11 0
-10 -12 0
-11 -12 0
10 11 12 0
-13 -14 0
-13 -15 0
-14 -15 0
13 14 15 0
-16 -17 0
-16 -18 0
-17 -18 0
16 17 18 0
-19 -20 0
-19 -21 0
-20 -21 0
19 20 21 0
-22 -23 0
-22 -24 0
-23 -24 0
22 23 24 0
-25 -26 0
-25 -27 0
-26 -27 0
25 26 27 0
-28 -29 0
-28 -30 0
-29 -30 0
28 29 30 0
-31 -32 0
-31 -33 0
-32 -33 0
31 32 33 0
-34 -35 0
-34 -36 0
-35 -36 0
34 35 36 0
-37 -38 0
-37 -39 0
-38 -39 0
37 38 39 0
-40 -41 0
-40 -42 0
-41 -42 0
40 41 42 0
-43 -44 0
-43 -45 0
-44 -45 0
43 44 45 0
-46 -47 0
-46 -48 0
-47 -48 0
46 47 48 0
-49 -50 0
-49 -51 0
-50 -51 0
49 50 51 0
-52 -53 0
-52 -54 0
-53 -54 0
52 53 54 0
-55 -56 0
-55 -57 0
-56 -57 0
55 56 57 0
-58 -59 0
-58 -60 0
-59 -60 0
58 59 60 0
-61 -62 0
-61 -63 0
-62 -63 0
61 62 63 0
-64 -65 0
-64 -66 0
-65 -66 0
64 65 66 0
-67 -68 0
-67 -69 0
-68 -69 0
67 68 69 0
-70 -71 0
-70 -72 0
-71 -72 0
70 71 72 0
-73 -74 0
-73 -75 0
-74 -75 0
73 74 75 0
-76 -77 0
-76 -78 0
-77 -78 0
76 77 78 0
-79 -80 0
-79 -81 0
-80 -81 0
79 80 81 0
-82 -83 0
-82 -84 0
-83 -84 0
82 83 84 0
-85 -86 0
-85 -87 0
-86 -87 0
85 86 87 0
-88 -89 0
-88 -90 0
-89 -90 0
88 89 90 0
-91 -92 0
-91 -93 0
-92 -93 0
91 92 93 0
-94 -95 0
-94 -96 0
-95 -96 0
94 95 96 0
-97 -98 0
-97 -99 0
-98 -99 0
97 98 99 0
-100 -101 0
-100 -102 0
-101 -102 0
100 101 102 0
-103 -104 0
-103 -105 0
-104 -105 0
103 104 105 0
-106 -107 0
-106 -108 0
-107 -108 0
106 107 108 0
-109 -110 0
-109 -111 0
-110 -111 0
109 110 111 0
-112 -113 0
-112 -114 0
-113 -114 0
112 113 114 0
-115 -116 0
-115 -117 0
-116 -117 0
115 116 117 0
-118 -119 0
-118 -120 0
-119 -120 0
118 119 120 0
-121 -122 0
-121 -123 0
-122 -123 0
121 122 123 0
-124 -125 0
-124 -126 0
-125 -126 0
124 125 126 0
-127 -128 0
-127 -129 0
-128 -129 0
127 128 129 0
-130 -131 0
-130 -132 0
-131 -132 0
130 131 132 0
-133 -134 0
-133 -135 0
-134 -135 0
133 134 135 0
-136 -137 0
-136 -138 0
-137 -138 0
136 137 138 0
-139 -140 0
-139 -141 0
-140 -141 0
139 140 141 0
-142 -143 0
-142 -144 0
-143 -144 0
142 143 144 0
-145 -146 0
-145 -147 0
-146 -147 0
145 146 147 0
-148 -149 0
-148 -150 0
-149 -150 0
148 149 150 0
-151 -152 0
-151 -153 0
-152 -153 0
151 152 153 0
-154 -155 0
-154 -156 0
-155 -156 0
154 155 156 0
-157 -158 0
-157 -159 0
-158 -159 0
157 158 159 0
-160 -161 0
-160 -162 0
-161 -162 0
160 161 162 0
-163 -164 0
-163 -165 0
-164 -165 0
163 164 165 0
-166 -167 0
-166 -168 0
-167 -168 0
166 167 168 0
-169 -170 0
-169 -171 0
-170 -171 0
169 170 171 0
-172 -173 0
-172 -174 0
-173 -174 0
172 173 174 0
-175 -176 0
-175 -177 0
-176 -177 0
175 176 177 0
-178 -179 0
-178 -180 0
-179 -180 0
178 179 180 0
-181 -182 0
-181 -183 0
-182 -183 0
181 182 183 0
-184 -185 0
-184 -186 0
-185 -186 0
184 185 186 0
-187 -188 0
-187 -189 0
-188 -189 0
187 188 189 0
-190 -191 0
-190 -192 0
-191 -192 0
190 191 192 0
-193 -194 0
-193 -195 0
-194 -195 0
193 194 195 0
-196 -197 0
-196 -198 0
-197 -198 0
196 197 198 0
-199 -200 0
-199 -201 0
-200 -201 0
199 200 201 0
-202 -203 0
-202 -204 0
-203 -204 0
202 203 204 0
-205 -206 0
-205 -207 0
-206 -207 0
205 206 207 0
-208 -209 0
-208 -210 0
-209 -210 0
208 209 210 0
-211 -212 0
-211 -213 0
-212 -213 0
211 212 213 0
-214 -215 0
-214 -216 0
-215 -216 0
214 215 216 0
-217 -218 0
-217 -219 0
-218 -219 0
217 218 219 0
-220 -221 0
-220 -222 0
-221 -222 0
220 221 222 0
-223 -224 0
-223 -225 0
-224 -225 0
223 224 225 0
-226 -227 0
-226 -228 0
-227 -228 0
226 227 228 0
-229 -230 0
-229 -231 0
-230 -231 0
229 230 231 0
-232 -233 0
-232 -234 0
-233 -234 0
232 233 234 0
-235 -236 0
-235 -237 0
-236 -237 0
235 236 237 0
-238 -239 0
-238 -240 0
-239 -240 0
238 239 240 0
-241 -242 0
-241 -243 0
-242 -243 0
241 242 243 0
-244 -245 0
-244 -246 0
-245 -246 0
244 245 246 0
-247 -248 0
-247 -249 0
-248 -249 0
247 248 249 0
-250 -251 0
-250 -252 0
-251 -252 0
250 251 252 0
-253 -254 0
-253 -255 0
-254 -255 0
253 254 255 0
-256 -257 0
-256 -258 0
-257 -258 0
256 257 258 0
-259 -260 0
-259 -261 0
-260 -261 0
259 260 261 0
-262 -263 0
-262 -264 0
-263 -264 0
262 263 264 0
-265 -266 0
-265 -267 0
-266 -267 0
265 266 267 0
-268 -269 0
-268 -270 0
-269 -270 0
268 269 270 0
-271 -272 0
-271 -273 0
-272 -273 0
271 272 273 0
-274 -275 0
-274 -276 0
-275 -276 0
274 275 276 0
-277 -278 0
-277 -279 0
-278 -279 0
277 278 279 0
-280 -281 0
-280 -282 0
-281 -282 0
280 281 282 0
-283 -284 0
-283 -285 0
-284 -285 0
283 284 285 0
-286 -287 0
-286 -288 0
-287 -288 0
286 287 288 0
-289 -290 0
-289 -291 0
-290 -291 0
289 290 291 0
-292 -293 0
-292 -294 0
-293 -294 0
292 293 294 0
-295 -296 0
-295 -297 0
-296 -297 0
295 296 297 0
-298 -299 0
-298 -300 0
-299 -300 0
298 299 300 0
-301 -302 0
-301 -303 0
-302 -303 0
301 302 303 0
-304 -305 0
-304 -306 0
-305 -306 0
304 305 306 0
-307 -308 0
-307 -309 0
-308 -309 0
307 308 309 0
-310 -311 0
-310 -312 0
-311 -312 0
310 311 312 0
-313 -314 0
-313 -315 0
-314 -315 0
313 314 315 0
-316 -317 0
-316 -318 0
-317 -318 0
316 317 318 0
-319 -320 0
-319 -321 0
-320 -321 0
319 320 321 0
-322 -323 0
-322 -324 0
-323 -324 0
322 323 324 0
-325 -326 0
-325 -327 0
-326 -327 0
325 326 327 0
-328 -329 0
-328 -330 0
-329 -330 0
328 329 330 0
-331 -332 0
-331 -333 0
-332 -333 0
331 332 333 0
-334 -335 0
-334 -336 0
-335 -336 0
334 335 336 0
-337 -338 0
-337 -339 0
-338 -339 0
337 338 339 0
-340 -341 0
-340 -342 0
-341 -342 0
340 341 342 0
-343 -344 0
-343 -345 0
-344 -345 0
343 344 345 0
-346 -347 0
-346 -348 0
-347 -348 0
346 347 348 0
-349 -350 0
-349 -351 0
-350 -351 0
349 350 351 0
-352 -353 0
-352 -354 0
-353 -354 0
352 353 354 0
-355 -356 0
-355 -357 0
-356 -357 0
355 356 357 0
-358 -359 0
-358 -360 0
-359 -360 0
358 359 360 0
-361 -362 0
-361 -363 0
-362 -363 0
361 362 363 0
-364 -365 0
-364 -366 0
-365 -366 0
364 365 366 0
-367 -368 0
-367 -369 0
-368 -369 0
367 368 369 0
-370 -371 0
-370 -372 0
-371 -372 0
370 371 372 0
-373 -374 0
-373 -375 0
-374 -375 0
373 374 375 0
-376 -377 0
-376 -378 0
-377 -378 0
376 377 378 0
-379 -380 0
-379 -381 0
-380 -381 0
379 380 381 0
-382 -383 0
-382 -384 0
-383 -384 0
382 383 384 0
-385 -386 0
-385 -387 0
-386 -387 0
385 386 387 0
-388 -389 0
-388 -390 0
-389 -390 0
388 389 390 0
-391 -392 0
-391 -393 0
-392 -393 0
391 392 393 0
-394 -395 0
-394 -396 0
-395 -396 0
394 395 396 0
-397 -398 0
-397 -399 0
-398 -399 0
397 398 399 0
-400 -401 0
-400 -402 0
-401 -402 0
400 401 402 0
-403 -404 0
-403 -405 0
-404 -405 0
403 404 405 0
-406 -407 0
-406 -408 0
-407 -408 0
406 407 408 0
-409 -410 0
-409 -411 0
-410 -411 0
409 410 411 0
-412 -413 0
-412 -414 0
-413 -414 0
412 413 414 0
-415 -416 0
-415 -417 0
-416 -417 0
415 416 417 0
-418 -419 0
-418 -420 0
-419 -420 0
418 419 420 0
-421 -422 0
-421 -423 0
-422 -423 0
421 422 423 0
-424 -425 0
-424 -426 0
-425 -426 0
424 425 426 0
-427 -428 0
-427 -429 0
-428 -429 0
427 428 429 0
-430 -431 0
-430 -432 0
-431 -432 0
430 431 432 0
-433 -434 0
-433 -435 0
-434 -435 0
433 434 435 0
-436 -437 0
-436 -438 0
-437 -438 0
436 437 438 0
-439 -440 0
-439 -441 0
-440 -441 0
439 440 441 0
-442 -443 0
-442 -444 0
-443 -444 0
442 443 444 0
-445 -446 0
-445 -447 0
-446 -447 0
445 446 447 0
-448 -449 0
-448 -450 0
-449 -450 0
448 449 450 0
-256 -1 0
-257 -2 0
-258 -3 0
-277 -1 0
-278 -2 0
-279 -3 0
-292 -1 0
-293 -2 0
-294 -3 0
-379 -1 0
-380 -2 0
-381 -3 0
-400 -1 0
-401 -2 0
-402 -3 0
-121 -4 0
-122 -5 0
-123 -6 0
-157 -4 0
-158 -5 0
-159 -6 0
-163 -4 0
-164 -5 0
-165 -6 0
-193 -4 0
-194 -5 0
-195 -6 0
-346 -4 0
-347 -5 0
-348 -6 0
-364 -4 0
-365 -5 0
-366 -6 0
-184 -7 0
-185 -8 0
-186 -9 0
-205 -7 0
-206 -8 0
-207 -9 0
-91 -10 0
-92 -11 0
-93 -12 0
-181 -10 0
-182 -11 0
-183 -12 0
-253 -10 0
-254 -11 0
-255 -12 0
-256 -10 0
-257 -11 0
-258 -12 0
-328 -10 0
-329 -11 0
-330 -12 0
-331 -10 0
-332 -11 0
-333 -12 0
-25 -13 0
-26 -14 0
-27 -15 0
-88 -13 0
-89 -14 0
-90 -15 0
-166 -13 0
-167 -14 0
-168 -15 0
-184 -13 0
-185 -14 0
-186 -15 0
-211 -13 0
-212 -14 0
-213 -15 0
-292 -13 0
-293 -14 0
-294 -15 0
-316 -13 0
-317 -14 0
-318 -15 0
-91 -16 0
-92 -17 0
-93 -18 0
-166 -16 0
-167 -17 0
-168 -18 0
-184 -16 0
-185 -17 0
-186 -18 0
-226 -16 0
-227 -17 0
-228 -18 0
-403 -16 0
-404 -17 0
-405 -18 0
-151 -19 0
-152 -20 0
-153 -21 0
-208 -19 0
-209 -20 0
-210 -21 0
-343 -19 0
-344 -20 0
-345 -21 0
-424 -19 0
-425 -20 0
-426 -21 0
-436 -19 0
-437 -20 0
-438 -21 0
-82 -22 0
-83 -23 0
-84 -24 0
-109 -22 0
-110 -23 0
-111 -24 0
-127 -22 0
-128 -23 0
-129 -24 0
-133 -22 0
-134 -23 0
-135 -24 0
-136 -22 0
-137 -23 0
-138 -24 0
-280 -22 0
-281 -23 0
-282 -24 0
-394 -22 0
-395 -23 0
-396 -24 0
-229 -25 0
-230 -26 0
-231 -27 0
-232 -25 0
-233 -26 0
-234 -27 0
-355 -25 0
-356 -26 0
-357 -27 0
-76 -28 0
-77 -29 0
-78 -30 0
-100 -28 0
-101 -29 0
-102 -30 0
-151 -28 0
-152 -29 0
-153 -30 0
-310 -28 0
-311 -29 0
-312 -30 0
-373 -28 0
-374 -29 0
-375 -30 0
-409 -28 0
-410 -29 0
-411 -30 0
-439 -28 0
-440 -29 0
-441 -30 0
-61 -31 0
-62 -32 0
-63 -33 0
-88 -31 0
-89 -32 0
-90 -33 0
-112 -31 0
-113 -32 0
-114 -33 0
-133 -31 0
-134 -32 0
-135 -33 0
-196 -31 0
-197 -32 0
-198 -33 0
-361 -31 0
-362 -32 0
-363 -33 0
-370 -31 0
-371 -32 0
-372 -33 0
-55 -34 0
-56 -35 0
-57 -36 0
-79 -34 0
-80 -35 0
-81 -36 0
-91 -34 0
-92 -35 0
-93 -36 0
-232 -34 0
-233 -35 0
-234 -36 0
-406 -34 0
-407 -35 0
-408 -36 0
-97 -37 0
-98 -38 0
-99 -39 0
-49 -40 0
-50 -41 0
-51 -42 0
-208 -40 0
-209 -41 0
-210 -42 0
-253 -40 0
-254 -41 0
-255 -42 0
-274 -40 0
-275 -41 0
-276 -42 0
-334 -40 0
-335 -41 0
-336 -42 0
-379 -40 0
-380 -41 0
-381 -42 0
-391 -40 0
-392 -41 0
-393 -42 0
-49 -43 0
-50 -44 0
-51 -45 0
-70 -43 0
-71 -44 0
-72 -45 0
-196 -43 0
-197 -44 0
-198 -45 0
-271 -43 0
-272 -44 0
-273 -45 0
-361 -43 0
-362 -44 0
-363 -45 0
-193 -46 0
-194 -47 0
-195 -48 0
-217 -46 0
-218 -47 0
-219 -48 0
-352 -46 0
-353 -47 0
-354 -48 0
-409 -46 0
-410 -47 0
-411 -48 0
-424 -46 0
-425 -47 0
-426 -48 0
-70 -49 0
-71 -50 0
-72 -51 0
-82 -49 0
-83 -50 0
-84 -51 0
-100 -49 0
-101 -50 0
-102 -51 0
-313 -49 0
-314 -50 0
-315 -51 0
-421 -49 0
-422 -50 0
-423 -51 0
-124 -52 0
-125 -53 0
-126 -54 0
-163 -52 0
-164 -53 0
-165 -54 0
-238 -52 0
-239 -53 0
-240 -54 0
-295 -52 0
-296 -53 0
-297 -54 0
-121 -55 0
-122 -56 0
-123 -57 0
-298 -55 0
-299 -56 0
-300 -57 0
-217 -58 0
-218 -59 0
-219 -60 0
-340 -58 0
-341 -59 0
-342 -60 0
-415 -58 0
-416 -59 0
-417 -60 0
-448 -58 0
-449 -59 0
-450 -60 0
-187 -61 0
-188 -62 0
-189 -63 0
-244 -61 0
-245 -62 0
-246 -63 0
-349 -61 0
-350 -62 0
-351 -63 0
-88 -64 0
-89 -65 0
-90 -66 0
-289 -64 0
-290 -65 0
-291 -66 0
-328 -64 0
-329 -65 0
-330 -66 0
-355 -64 0
-356 -65 0
-357 -66 0
-217 -67 0
-218 -68 0
-219 -69 0
-286 -67 0
-287 -68 0
-288 -69 0
-340 -67 0
-341 -68 0
-342 -69 0
-376 -67 0
-377 -68 0
-378 -69 0
-394 -67 0
-395 -68 0
-396 -69 0
-448 -67 0
-449 -68 0
-450 -69 0
-124 -70 0
-125 -71 0
-126 -72 0
-151 -70 0
-152 -71 0
-153 -72 0
-274 -70 0
-275 -71 0
-276 -72 0
-301 -70 0
-302 -71 0
-303 -72 0
-313 -70 0
-314 -71 0
-315 -72 0
-379 -70 0
-380 -71 0
-381 -72 0
-160 -73 0
-161 -74 0
-162 -75 0
-343 -73 0
-344 -74 0
-345 -75 0
-376 -73 0
-377 -74 0
-378 -75 0
-91 -76 0
-92 -77 0
-93 -78 0
-136 -76 0
-137 -77 0
-138 -78 0
-148 -76 0
-149 -77 0
-150 -78 0
-283 -76 0
-284 -77 0
-285 -78 0
-436 -76 0
-437 -77 0
-438 -78 0
-274 -79 0
-275 -80 0
-276 -81 0
-361 -79 0
-362 -80 0
-363 -81 0
-379 -79 0
-380 -80 0
-381 -81 0
-406 -79 0
-407 -80 0
-408 -81 0
-91 -82 0
-92 -83 0
-93 -84 0
-121 -82 0
-122 -83 0
-123 -84 0
-268 -82 0
-269 -83 0
-270 -84 0
-307 -82 0
-308 -83 0
-309 -84 0
-316 -82 0
-317 -83 0
-318 -84 0
-118 -85 0
-119 -86 0
-120 -87 0
-220 -85 0
-221 -86 0
-222 -87 0
-289 -85 0
-290 -86 0
-291 -87 0
-382 -85 0
-383 -86 0
-384 -87 0
-415 -85 0
-416 -86 0
-417 -87 0
-109 -88 0
-110 -89 0
-111 -90 0
-115 -88 0
-116 -89 0
-117 -90 0
-268 -88 0
-269 -89 0
-270 -90 0
-442 -88 0
-443 -89 0
-444 -90 0
-193 -91 0
-194 -92 0
-195 -93 0
-340 -91 0
-341 -92 0
-342 -93 0
-199 -94 0
-200 -95 0
-201 -96 0
-214 -94 0
-215 -95 0
-216 -96 0
-412 -94 0
-413 -95 0
-414 -96 0
-415 -94 0
-416 -95 0
-417 -96 0
-169 -97 0
-170 -98 0
-171 -99 0
-319 -97 0
-320 -98 0
-321 -99 0
-283 -100 0
-284 -101 0
-285 -102 0
-424 -100 0
-425 -101 0
-426 -102 0
-433 -100 0
-434 -101 0
-435 -102 0
-136 -103 0
-137 -104 0
-138 -105 0
-148 -103 0
-149 -104 0
-150 -105 0
-247 -103 0
-248 -104 0
-249 -105 0
-163 -106 0
-164 -107 0
-165 -108 0
-301 -106 0
-302 -107 0
-303 -108 0
-400 -106 0
-401 -107 0
-402 -108 0
-442 -106 0
-443 -107 0
-444 -108 0
-157 -109 0
-158 -110 0
-159 -111 0
-193 -109 0
-194 -110 0
-195 -111 0
-166 -112 0
-167 -113 0
-168 -114 0
-199 -112 0
-200 -113 0
-201 -114 0
-220 -112 0
-221 -113 0
-222 -114 0
-337 -112 0
-338 -113 0
-339 -114 0
-364 -112 0
-365 -113 0
-366 -114 0
-370 -112 0
-371 -113 0
-372 -114 0
-175 -115 0
-176 -116 0
-177 -117 0
-196 -115 0
-197 -116 0
-198 -117 0
-157 -118 0
-158 -119 0
-159 -120 0
-244 -118 0
-245 -119 0
-246 -120 0
-292 -118 0
-293 -119 0
-294 -120 0
-298 -118 0
-299 -119 0
-300 -120 0
-328 -118 0
-329 -119 0
-330 -120 0
-175 -121 0
-176 -122 0
-177 -123 0
-184 -121 0
-185 -122 0
-186 -123 0
-271 -121 0
-272 -122 0
-273 -123 0
-301 -121 0
-302 -122 0
-303 -123 0
-148 -124 0
-149 -125 0
-150 -126 0
-361 -124 0
-362 -125 0
-363 -126 0
-385 -124 0
-386 -125 0
-387 -126 0
-136 -127 0
-137 -128 0
-138 -129 0
-226 -127 0
-227 -128 0
-228 -129 0
-292 -127 0
-293 -128 0
-294 -129 0
-445 -127 0
-446 -128 0
-447 -129 0
-166 -133 0
-167 -134 0
-168 -135 0
-196 -133 0
-197 -134 0
-198 -135 0
-220 -133 0
-221 -134 0
-222 -135 0
-304 -133 0
-305 -134 0
-306 -135 0
-418 -133 0
-419 -134 0
-420 -135 0
-226 -136 0
-227 -137 0
-228 -138 0
-250 -139 0
-251 -140 0
-252 -141 0
-316 -139 0
-317 -140 0
-318 -141 0
-394 -139 0
-395 -140 0
-396 -141 0
-229 -142 0
-230 -143 0
-231 -144 0
-262 -142 0
-263 -143 0
-264 -144 0
-307 -142 0
-308 -143 0
-309 -144 0
-322 -142 0
-323 -143 0
-324 -144 0
-373 -142 0
-374 -143 0
-375 -144 0
-433 -142 0
-434 -143 0
-435 -144 0
-400 -145 0
-401 -146 0
-402 -147 0
-217 -148 0
-218 -149 0
-219 -150 0
-271 -148 0
-272 -149 0
-273 -150 0
-409 -148 0
-410 -149 0
-411 -150 0
-274 -151 0
-275 -152 0
-276 -153 0
-190 -154 0
-191 -155 0
-192 -156 0
-223 -154 0
-224 -155 0
-225 -156 0
-307 -154 0
-308 -155 0
-309 -156 0
-346 -154 0
-347 -155 0
-348 -156 0
-421 -154 0
-422 -155 0
-423 -156 0
-280 -157 0
-281 -158 0
-282 -159 0
-382 -157 0
-383 -158 0
-384 -159 0
-193 -160 0
-194 -161 0
-195 -162 0
-358 -160 0
-359 -161 0
-360 -162 0
-220 -163 0
-221 -164 0
-222 -165 0
-349 -163 0
-350 -164 0
-351 -165 0
-415 -163 0
-416 -164 0
-417 -165 0
-418 -163 0
-419 -164 0
-420 -165 0
-175 -166 0
-176 -167 0
-177 -168 0
-391 -166 0
-392 -167 0
-393 -168 0
-409 -166 0
-410 -167 0
-411 -168 0
-178 -169 0
-179 -170 0
-180 -171 0
-283 -169 0
-284 -170 0
-285 -171 0
-292 -169 0
-293 -170 0
-294 -171 0
-316 -169 0
-317 -170 0
-318 -171 0
-337 -169 0
-338 -170 0
-339 -171 0
-340 -169 0
-341 -170 0
-342 -171 0
-175 -172 0
-176 -173 0
-177 -174 0
-265 -172 0
-266 -173 0
-267 -174 0
-271 -172 0
-272 -173 0
-273 -174 0
-358 -172 0
-359 -173 0
-360 -174 0
-370 -172 0
-371 -173 0
-372 -174 0
-418 -172 0
-419 -173 0
-420 -174 0
-373 -175 0
-374 -176 0
-375 -177 0
-430 -175 0
-431 -176 0
-432 -177 0
-238 -178 0
-239 -179 0
-240 -180 0
-241 -178 0
-242 -179 0
-243 -180 0
-271 -178 0
-272 -179 0
-273 -180 0
-208 -181 0
-209 -182 0
-210 -183 0
-259 -181 0
-260 -182 0
-261 -183 0
-355 -181 0
-356 -182 0
-357 -183 0
-391 -181 0
-392 -182 0
-393 -183 0
-202 -184 0
-203 -185 0
-204 -186 0
-340 -184 0
-341 -185 0
-342 -186 0
-322 -187 0
-323 -188 0
-324 -189 0
-208 -190 0
-209 -191 0
-210 -192 0
-325 -193 0
-326 -194 0
-327 -195 0
-364 -193 0
-365 -194 0
-366 -195 0
-403 -193 0
-404 -194 0
-405 -195 0
-214 -196 0
-215 -197 0
-216 -198 0
-307 -196 0
-308 -197 0
-309 -198 0
-208 -199 0
-209 -200 0
-210 -201 0
-310 -199 0
-311 -200 0
-312 -201 0
-349 -202 0
-350 -203 0
-351 -204 0
-355 -202 0
-356 -203 0
-357 -204 0
-208 -205 0
-209 -206 0
-210 -207 0
-253 -205 0
-254 -206 0
-255 -207 0
-289 -208 0
-290 -209 0
-291 -210 0
-349 -208 0
-350 -209 0
-351 -210 0
-226 -211 0
-227 -212 0
-228 -213 0
-244 -211 0
-245 -212 0
-246 -213 0
-268 -211 0
-269 -212 0
-270 -213 0
-280 -211 0
-281 -212 0
-282 -213 0
-364 -211 0
-365 -212 0
-366 -213 0
-427 -214 0
-428 -215 0
-429 -216 0
-418 -220 0
-419 -221 0
-420 -222 0
-433 -220 0
-434 -221 0
-435 -222 0
-319 -223 0
-320 -224 0
-321 -225 0
-397 -223 0
-398 -224 0
-399 -225 0
-286 -226 0
-287 -227 0
-288 -228 0
-262 -229 0
-263 -230 0
-264 -231 0
-358 -229 0
-359 -230 0
-360 -231 0
-385 -229 0
-386 -230 0
-387 -231 0
-412 -229 0
-413 -230 0
-414 -231 0
-424 -229 0
-425 -230 0
-426 -231 0
-235 -232 0
-236 -233 0
-237 -234 0
-352 -232 0
-353 -233 0
-354 -234 0
-247 -235 0
-248 -236 0
-249 -237 0
-256 -235 0
-257 -236 0
-258 -237 0
-256 -238 0
-257 -239 0
-258 -240 0
-292 -238 0
-293 -239 0
-294 -240 0
-334 -238 0
-335 -239 0
-336 -240 0
-256 -241 0
-257 -242 0
-258 -243 0
-400 -241 0
-401 -242 0
-402 -243 0
-283 -244 0
-284 -245 0
-285 -246 0
-448 -244 0
-449 -245 0
-450 -246 0
-343 -247 0
-344 -248 0
-345 -249 0
-418 -247 0
-419 -248 0
-420 -249 0
-439 -250 0
-440 -251 0
-441 -252 0
-367 -253 0
-368 -254 0
-369 -255 0
-430 -253 0
-431 -254 0
-432 -255 0
-289 -256 0
-290 -257 0
-291 -258 0
-418 -259 0
-419 -260 0
-420 -261 0
-403 -262 0
-404 -263 0
-405 -264 0
-412 -265 0
-413 -266 0
-414 -267 0
-313 -268 0
-314 -269 0
-315 -270 0
-328 -268 0
-329 -269 0
-330 -270 0
-307 -271 0
-308 -272 0
-309 -273 0
-337 -271 0
-338 -272 0
-339 -273 0
-376 -271 0
-377 -272 0
-378 -273 0
-310 -274 0
-311 -275 0
-312 -276 0
-382 -274 0
-383 -275 0
-384 -276 0
-409 -274 0
-410 -275 0
-411 -276 0
-313 -277 0
-314 -278 0
-315 -279 0
-373 -277 0
-374 -278 0
-375 -279 0
-409 -277 0
-410 -278 0
-411 -279 0
-406 -280 0
-407 -281 0
-408 -282 0
-301 -283 0
-302 -284 0
-303 -285 0
-406 -283 0
-407 -284 0
-408 -285 0
-442 -283 0
-443 -284 0
-444 -285 0
-391 -286 0
-392 -287 0
-393 -288 0
-412 -286 0
-413 -287 0
-414 -288 0
-448 -286 0
-449 -287 0
-450 -288 0
-328 -289 0
-329 -290 0
-330 -291 0
-412 -289 0
-413 -290 0
-414 -291 0
-376 -292 0
-377 -293 0
-378 -294 0
-448 -298 0
-449 -299 0
-450 -300 0
-391 -301 0
-392 -302 0
-393 -303 0
-367 -304 0
-368 -305 0
-369 -306 0
-430 -304 0
-431 -305 0
-432 -306 0
-442 -304 0
-443 -305 0
-444 -306 0
-331 -307 0
-332 -308 0
-333 -309 0
-373 -307 0
-374 -308 0
-375 -309 0
-325 -310 0
-326 -311 0
-327 -312 0
-319 -313 0
-320 -314 0
-321 -315 0
-328 -316 0
-329 -317 0
-330 -318 0
-355 -316 0
-356 -317 0
-357 -318 0
-430 -316 0
-431 -317 0
-432 -318 0
-331 -322 0
-332 -323 0
-333 -324 0
-382 -322 0
-383 -323 0
-384 -324 0
-412 -322 0
-413 -323 0
-414 -324 0
-367 -325 0
-368 -326 0
-369 -327 0
-397 -325 0
-398 -326 0
-399 -327 0
-448 -325 0
-449 -326 0
-450 -327 0
-448 -331 0
-449 -332 0
-450 -333 0
-367 -334 0
-368 -335 0
-369 -336 0
-439 -337 0
-440 -338 0
-441 -339 0
-373 -340 0
-374 -341 0
-375 -342 0
-355 -343 0
-356 -344 0
-357 -345 0
-364 -343 0
-365 -344 0
-366 -345 0
-415 -346 0
-416 -347 0
-417 -348 0
-358 -349 0
-359 -350 0
-360 -351 0
-406 -355 0
-407 -356 0
-408 -357 0
-370 -358 0
-371 -359 0
-372 -360 0
-376 -358 0
-377 -359 0
-378 -360 0
-430 -361 0
-431 -362 0
-432 -363 0
-424 -367 0
-425 -368 0
-426 -369 0
-394 -382 0
-395 -383 0
-396 -384 0
-421 -382 0
-422 -383 0
-423 -384 0
-427 -385 0
-428 -386 0
-429 -387 0
-391 -388 0
-392 -389 0
-393 -390 0
-397 -391 0
-398 -392 0
-399 -393 0
-415 -394 0
-416 -395 0
-417 -396 0
-427 -394 0
-428 -395 0
-429 -396 0
-427 -397 0
-428 -398 0
-429 -399 0
-427 -424 0
-428 -425 0
-429 -426 0
-439 -433 0
-440 -434 0
-441 -435 0
-442 -433 0
-443 -434 0
-444 -435 0
